coords = array2d(1..45, 1..2, [410, 963, 728, 886, 191, 147, 434, 432, 224,
    294, 129, 681, 49, 941, 704, 752, 37, 328, 485, 883, 348, 754,
    995, 301, 637, 338, 199, 209, 184, 424, 433, 476, 195, 378, 854,
    444, 166, 209, 548, 209, 410, 351, 428, 146, 619, 710, 637, 889,
    369, 568, 712, 832, 969, 857, 776, 939, 647, 801, 960, 94, 457,
    595, 404, 132, 77, 957, 842, 335, 368, 309, 522, 81, 714, 80, 569,
    136, 586, 695, 436, 289, 263, 328, 622, 857, 487, 800, 429, 869,
    100, 453]);

n = 45;

